{"Id":null,"Data":{"CounterId":"fbed8dd3-eb8d-4c3d-a86e-7d62f014d28d","Timestamp":"2014-04-13T11:26:21.3760426Z","PageSpecificMetrics":null,"Data":16.988834598125422,"Id":"3eb9ad47-488c-45e8-844d-db1aab64d97c"},"Metadata":null}